NAME : XML100_3254_15
DIMENSION : 101
NB_CLUSTERS : 6
CLUSTERING_ALG : DBSCAN
CLUSTERING_PARAMS : eps(83), minSamples(3)
CLUSTERS
1 0
2 1 2 4 10 18 20 21 29 38 40 45 52 53 57 60 62 82 96 99
3 5 6 11 13 15 22 32 35 48 50 58 63 66 67 68 71 72 75 79 81 83 85 86 91 92 95
4 3 7 8 12 19 23 44 59 73 76 93
5 9 24 26 27 28 30 31 34 37 41 42 43 47 49 51 54 56 61 64 65 69 74 87 88 90 94 97 98 100
6 14 16 17 25 33 36 39 46 55 70 77 78 80 84 89
EOF